n_res = 4;
rc = [ 10, 8, 13, 12 ];
n_tasks = 30;
d = [ 1, 1, 1, 7, 6, 4, 5, 8, 7, 8, 1, 2, 3, 10, 10, 2, 10, 1, 1, 7, 9, 9, 4, 4, 1, 1, 8, 1, 2, 7 ];
rr = [| 10, 10, 10, 10, 10, 10, 10, 10, 10, 10, 10, 10, 10, 10, 10, 10, 10, 10, 10, 10, 10, 10, 10, 10, 10, 10, 10, 10, 10, 10
      | 8, 8, 8, 8, 8, 8, 8, 8, 8, 8, 8, 8, 8, 8, 8, 8, 8, 8, 8, 8, 8, 8, 8, 8, 8, 8, 8, 8, 8, 8
      | 13, 13, 13, 13, 13, 13, 13, 13, 13, 13, 13, 13, 13, 13, 13, 13, 13, 13, 13, 13, 13, 13, 13, 13, 13, 13, 13, 13, 13, 13
      | 12, 12, 12, 12, 12, 12, 12, 12, 12, 12, 12, 12, 12, 12, 12, 12, 12, 12, 12, 12, 12, 12, 12, 12, 12, 12, 12, 12, 12, 12|];
suc = [ { 22, 23 },
       { 4, 5, 16 },
       { 6, 19 },
       { 9, 21, 27 },
       { 17 },
       { 7, 8, 11 },
       { 13, 20, 26 },
       { 10, 15 },
       { 15 },
       { 16 },
       { 12, 14, 15 },
       { 29 },
       { 18 },
       { 25 },
       { 24 },
       { 23 },
       { 20 },
       { 24 },
       { 24, 26 },
       { 21 },
       { 28, 29 },
       { 30 },
       { 26 },
       { 25 },
       { 29 },
       { 27 },
       { 30 },
       {  },
       {  },
       {  } ];
